(set-info :smt-lib-version 2.6)
(set-logic QF_UFLRA)
(set-info :source |
MathSat group

|)
(set-info :category "random")
(set-info :status sat)
(declare-fun x0 () Real)
(declare-fun x1 () Real)
(declare-fun x2 () Real)
(declare-fun x3 () Real)
(declare-fun x4 () Real)
(declare-fun x5 () Real)
(declare-fun x6 () Real)
(declare-fun x7 () Real)
(declare-fun x8 () Real)
(declare-fun x9 () Real)
(declare-fun x10 () Real)
(declare-fun x11 () Real)
(declare-fun x12 () Real)
(declare-fun x13 () Real)
(declare-fun x14 () Real)
(declare-fun x15 () Real)
(declare-fun x16 () Real)
(declare-fun x17 () Real)
(declare-fun x18 () Real)
(declare-fun x19 () Real)
(declare-fun x20 () Real)
(declare-fun x21 () Real)
(declare-fun x22 () Real)
(declare-fun x23 () Real)
(declare-fun x24 () Real)
(declare-fun x25 () Real)
(declare-fun x26 () Real)
(declare-fun x27 () Real)
(declare-fun x28 () Real)
(declare-fun x29 () Real)
(declare-fun x30 () Real)
(declare-fun x31 () Real)
(declare-fun x32 () Real)
(declare-fun x33 () Real)
(declare-fun x34 () Real)
(declare-fun x35 () Real)
(declare-fun x36 () Real)
(declare-fun x37 () Real)
(declare-fun x38 () Real)
(declare-fun x39 () Real)
(declare-fun x40 () Real)
(declare-fun x41 () Real)
(declare-fun x42 () Real)
(declare-fun x43 () Real)
(declare-fun x44 () Real)
(declare-fun x45 () Real)
(declare-fun x46 () Real)
(declare-fun x47 () Real)
(declare-fun x48 () Real)
(declare-fun x49 () Real)
(declare-fun f0_1 (Real) Real)
(declare-fun f0_2 (Real Real) Real)
(declare-fun f0_3 (Real Real Real) Real)
(declare-fun f0_4 (Real Real Real Real) Real)
(declare-fun P0 () Bool)
(declare-fun P1 () Bool)
(declare-fun P2 () Bool)
(declare-fun P3 () Bool)
(declare-fun P4 () Bool)
(declare-fun P5 () Bool)
(declare-fun P6 () Bool)
(declare-fun P7 () Bool)
(declare-fun P8 () Bool)
(declare-fun P9 () Bool)
(declare-fun P10 () Bool)
(declare-fun P11 () Bool)
(declare-fun P12 () Bool)
(declare-fun P13 () Bool)
(declare-fun P14 () Bool)
(declare-fun P15 () Bool)
(declare-fun P16 () Bool)
(declare-fun P17 () Bool)
(declare-fun P18 () Bool)
(declare-fun P19 () Bool)
(declare-fun P20 () Bool)
(declare-fun P21 () Bool)
(declare-fun P22 () Bool)
(declare-fun P23 () Bool)
(declare-fun P24 () Bool)
(declare-fun P25 () Bool)
(declare-fun P26 () Bool)
(declare-fun P27 () Bool)
(declare-fun P28 () Bool)
(declare-fun P29 () Bool)
(declare-fun P30 () Bool)
(declare-fun P31 () Bool)
(declare-fun P32 () Bool)
(declare-fun P33 () Bool)
(declare-fun P34 () Bool)
(declare-fun P35 () Bool)
(declare-fun P36 () Bool)
(declare-fun P37 () Bool)
(declare-fun P38 () Bool)
(declare-fun P39 () Bool)
(declare-fun P40 () Bool)
(declare-fun P41 () Bool)
(declare-fun P42 () Bool)
(declare-fun P43 () Bool)
(declare-fun P44 () Bool)
(declare-fun P45 () Bool)
(declare-fun P46 () Bool)
(declare-fun P47 () Bool)
(declare-fun P48 () Bool)
(declare-fun P49 () Bool)
(assert (let ((?v_103 (< (- (- (* 8 x30) (* 8 x16)) (* 12 x14)) 8)) (?v_5 (* 20 x30)) (?v_23 (* 26 x13)) (?v_18 (<= (- (- (* 18 x49) (* 6 x14)) (* 17 x41)) 9)) (?v_130 (* 14 x21)) (?v_168 (* 5 x1)) (?v_2 (* 9 x1)) (?v_27 (* 23 x18))) (let ((?v_7 (<= (+ (- (* 4 x11) ?v_27) ?v_130) 19)) (?v_28 (* 6 x46)) (?v_98 (< (- (- (* 12 x15) (* 9 x29)) (* 17 x22)) 28)) (?v_118 (* 9 x13)) (?v_99 (<= (- (- (* 17 x3) (* 25 x2)) (* 9 x8)) 16)) (?v_63 (= (+ (- (* 21 x13) (* 17 x26)) (* 21 x8)) 29)) (?v_190 (<= (+ (- (* 11 x35) ?v_168) (* 18 x45)) 18)) (?v_47 (<= (+ (- (* 18 x1) ?v_2) (* 16 x33)) 21))) (let ((?v_197 (<= (- (- (* 19 x44) ?v_118) (* 21 x32)) 28)) (?v_82 (<= (- (- (* 2 x41) (* 10 x42)) (* 9 x39)) 7)) (?v_230 (distinct (f0_2 x26 x22) (f0_2 x3 x12))) (?v_59 (= (f0_2 x41 x17) (f0_2 x22 x43))) (?v_43 (distinct (f0_2 x23 x43) (f0_2 x24 x0))) (?v_86 (= (f0_2 x47 x7) (f0_2 x2 x32))) (?v_16 (distinct x0 (f0_1 x26))) (?v_132 (distinct x33 x32)) (?v_155 (distinct (f0_2 x3 x31) (f0_2 x11 x3))) (?v_91 (distinct x37 x15)) (?v_215 (= x2 (f0_1 x1))) (?v_64 (= (f0_2 x10 x43) (f0_1 x11))) (?v_8 (= (f0_2 x17 x6) x34)) (?v_51 (= (f0_2 x38 x34) x43)) (?v_115 (= (f0_1 x48) (f0_2 x21 x39))) (?v_42 (= x23 (f0_1 x3))) (?v_128 (distinct (f0_2 x34 x26) (f0_2 x32 x5))) (?v_122 (= x33 (f0_1 x6))) (?v_14 (distinct (f0_2 x13 x29) x25)) (?v_29 (distinct (f0_2 x38 x44) (f0_2 x44 x0))) (?v_101 (f0_1 x23))) (let ((?v_1 (distinct (f0_1 x4) ?v_101)) (?v_127 (distinct x24 (f0_2 x0 x44))) (?v_52 (= (f0_2 x40 x46) (f0_2 x46 x48))) (?v_241 (distinct (f0_2 x31 x4) x32)) (?v_90 (= (f0_2 x23 x3) (f0_1 x47))) (?v_141 (= (f0_2 x42 x25) x37)) (?v_119 (distinct ?v_101 (f0_2 x37 x15))) (?v_25 (= x21 (f0_2 x40 x38))) (?v_200 (distinct (f0_1 x30) (f0_2 x46 x1))) (?v_102 (f0_1 x20))) (let ((?v_49 (distinct ?v_102 (f0_1 x43))) (?v_31 (f0_1 x35))) (let ((?v_179 (= (f0_1 x8) ?v_31)) (?v_3 (f0_1 x39))) (let ((?v_19 (= ?v_3 ?v_31)) (?v_239 (distinct (f0_2 x18 x42) (f0_2 x31 x19))) (?v_219 (distinct (f0_1 x28) (f0_1 x16))) (?v_180 (distinct x46 x23)) (?v_225 (= x19 x30)) (?v_73 (distinct ?v_3 (f0_1 x22))) (?v_84 (= (f0_2 x0 x22) (f0_1 x19))) (?v_96 (distinct x34 (f0_2 x23 x36))) (?v_211 (distinct (f0_1 x49) (f0_1 x25))) (?v_12 (= x43 x14)) (?v_117 (distinct ?v_102 x26)) (?v_17 (= x40 (f0_2 x32 x14))) (?v_164 (distinct (f0_2 x15 x1) x24)) (?v_105 (distinct (f0_2 x7 x28) x22)) (?v_107 (= x45 (f0_2 x17 x30))) (?v_156 (distinct (f0_2 x13 x27) (f0_2 x7 x0))) (?v_137 (distinct (f0_2 x11 x49) (f0_1 x15))) (?v_174 (= (f0_1 x24) x24)) (?v_143 (distinct (f0_2 x32 x38) x45)) (?v_20 (distinct x30 x2)) (?v_74 (distinct x24 (f0_2 x3 x14))) (?v_144 (not ?v_49)) (?v_195 (not P3))) (let ((?v_22 (not ?v_156)) (?v_61 (not ?v_29)) (?v_30 (not ?v_42)) (?v_189 (not P29)) (?v_11 (not ?v_17)) (?v_4 (not P44)) (?v_131 (not P8)) (?v_177 (not P47)) (?v_36 (not ?v_1)) (?v_21 (not ?v_47)) (?v_45 (not ?v_73)) (?v_80 (not P19)) (?v_184 (not P27)) (?v_6 (not ?v_52)) (?v_15 (not P24)) (?v_37 (not ?v_7)) (?v_123 (not ?v_143)) (?v_68 (not P26)) (?v_108 (not ?v_8)) (?v_191 (not ?v_59)) (?v_9 (not ?v_90)) (?v_116 (not P34)) (?v_92 (not P6)) (?v_39 (not ?v_20)) (?v_55 (not P15)) (?v_41 (not ?v_141)) (?v_26 (not ?v_14)) (?v_134 (not ?v_215)) (?v_78 (not P38)) (?v_181 (not ?v_219)) (?v_94 (not P22)) (?v_114 (not ?v_64)) (?v_138 (not ?v_19)) (?v_172 (not P43)) (?v_218 (not ?v_105)) (?v_75 (not ?v_103)) (?v_88 (not P46)) (?v_44 (not ?v_74)) (?v_163 (not ?v_155)) (?v_151 (not P10)) (?v_67 (not ?v_230)) (?v_81 (not P40)) (?v_93 (not ?v_128)) (?v_35 (not ?v_107)) (?v_83 (not P37)) (?v_62 (not P1)) (?v_121 (not ?v_43)) (?v_46 (not P9)) (?v_170 (not P20)) (?v_169 (not ?v_86)) (?v_175 (not ?v_51)) (?v_246 (not P35)) (?v_186 (not ?v_211)) (?v_223 (not P16)) (?v_72 (not P32)) (?v_171 (not ?v_239)) (?v_233 (not ?v_16)) (?v_173 (not P12)) (?v_166 (not ?v_91)) (?v_129 (not ?v_96)) (?v_150 (not ?v_241)) (?v_243 (not P25)) (?v_192 (not P11)) (?v_100 (not P21)) (?v_228 (not ?v_119)) (?v_182 (not ?v_12)) (?v_146 (not ?v_200)) (?v_136 (not P7)) (?v_145 (not ?v_115)) (?v_185 (not P42)) (?v_216 (not ?v_197)) (?v_176 (not ?v_122)) (?v_157 (not ?v_127)) (?v_158 (not P28)) (?v_152 (not ?v_132)) (?v_149 (not P23)) (?v_161 (not P41)) (?v_256 (not P31)) (?v_205 (not ?v_137)) (?v_196 (not P13)) (?v_217 (not P49)) (?v_238 (not P17)) (?v_203 (not P4)) (?v_188 (not ?v_117)) (?v_165 (not P2)) (?v_253 (not P33)) (?v_209 (not P48)) (?v_194 (not P14)) (?v_202 (not P36)) (?v_235 (not P39)) (?v_187 (not P18)) (?v_248 (not ?v_180)) (?v_250 (not P5)) (?v_227 (not ?v_164)) (?v_220 (not ?v_25)) (?v_237 (not ?v_84)) (?v_232 (not P30)) (?v_204 (not ?v_63)) (?v_222 (not ?v_174)) (?v_257 (not ?v_225)) (?v_242 (not P0)) (?v_240 (not P45)) (?v_251 (not ?v_190)) (?v_245 (not ?v_99)) (?v_60 (<= (+ (* 19 x29) (* 25 x8) x26) 18))) (let ((?v_126 (not ?v_60)) (?v_135 (<= (- (* 3 x16) (* 6 x43)) 15)) (?v_58 (< (+ ?v_118 (* 20 x29) (* 10 x18)) 3)) (?v_66 (<= (* 10 x20) 23))) (let ((?v_244 (not ?v_66)) (?v_142 (not ?v_58)) (?v_231 (not ?v_135)) (?v_0 (<= (- (* 25 x13) ?v_2) (- 20))) (?v_32 (distinct (+ (* (- 1) x10) (* 2 x25) (* 25 x7)) (- 3))) (?v_50 (<= (- (- ?v_5 (* 26 x41)) (* 7 x22)) (- 14))) (?v_104 (<= (+ (- (* 17 x36) (* 2 x16)) (* 22 x21)) (- 29))) (?v_87 (= (- (* (- 7) x30) (* 23 x31)) (- 29))) (?v_24 (< (- (- (* 16 x44) (* 9 x33)) (* 18 x12)) (- 29)))) (let ((?v_54 (not ?v_24)) (?v_48 (<= (- (+ (* (- 7) x39) (* 6 x25)) (* 25 x49)) (- 26))) (?v_70 (< (- (- (* (- 24) x30) (* 14 x2)) (* 15 x47)) (- 6))) (?v_69 (<= (+ (* (- 26) x21) (* 26 x12) ?v_5) 20)) (?v_106 (< (- (+ (* (- 12) x36) (* 5 x22)) (* 3 x6)) (- 3)))) (let ((?v_89 (not ?v_106)) (?v_10 (< (- (- 0 (* 18 x35)) (* 5 x41)) (- 4))) (?v_57 (< (- (+ (* 8 x42) (* 8 x20)) (* 14 x34)) (- 1))) (?v_79 (<= (- (+ (* 11 x49) (* 7 x16)) (* 5 x16)) (- 24))) (?v_56 (<= (+ (* (- 22) x16) (* 20 x48) ?v_28) 11))) (let ((?v_229 (not ?v_56)) (?v_154 (< (+ (- (* 8 x0) (* 15 x25)) ?v_168) (- 22)))) (let ((?v_85 (not ?v_154)) (?v_13 (< (+ x2 (* 16 x1) (* 15 x24)) (- 14))) (?v_33 (<= (- (+ (* 12 x6) (* 21 x42)) ?v_23) (- 24)))) (let ((?v_140 (not ?v_13)) (?v_38 (< (- (- (* (- 9) x40) (* 25 x36)) (* 2 x11)) 14))) (let ((?v_120 (not ?v_38)) (?v_65 (<= (- (+ (* (- 3) x26) (* 22 x39)) (* 13 x35)) (- 2)))) (let ((?v_112 (not ?v_65)) (?v_53 (distinct (- (* (- 10) x38) (* 14 x23)) 0)) (?v_110 (< (- (+ (* (- 23) x18) (* 18 x10)) (* 24 x47)) (- 1))) (?v_113 (<= (- (- 0 (* 25 x45)) ?v_23) (- 25)))) (let ((?v_71 (not ?v_113)) (?v_40 (distinct (+ (- (* 10 x2) (* 9 x2)) (* 6 x1)) (- 5)))) (let ((?v_76 (not ?v_40)) (?v_34 (<= (- (- ?v_27 ?v_28) (* 12 x19)) (- 22))) (?v_236 (not ?v_33)) (?v_254 (not ?v_50)) (?v_77 (not ?v_53)) (?v_95 (<= (- (+ (* (- 27) x12) (* 2 x40)) (* 11 x28)) (- 7))) (?v_167 (not ?v_57)) (?v_201 (< (+ (* (- 12) x14) (* 23 x11) (* 19 x35)) (- 14)))) (let ((?v_208 (not ?v_201)) (?v_139 (<= (+ (- (* (- 6) x15) (* 2 x13)) (* 15 x34)) (- 16)))) (let ((?v_148 (not ?v_139)) (?v_147 (not ?v_0)) (?v_109 (not ?v_32)) (?v_124 (<= (+ (- (* 9 x6) (* 20 x18)) (* 3 x40)) (- 26))) (?v_198 (not ?v_87)) (?v_97 (< (- (- (* 24 x27) 0) (* 6 x22)) (- 9)))) (let ((?v_178 (not ?v_97)) (?v_159 (not ?v_95)) (?v_111 (<= (- (+ (* 6 x36) (* 21 x15)) (* 2 x9)) (- 24))) (?v_210 (not ?v_104)) (?v_125 (< (- (+ (* 14 x10) (* 23 x36)) (* 17 x33)) (- 25))) (?v_160 (not ?v_79))) (let ((?v_247 (not ?v_111)) (?v_212 (not ?v_124)) (?v_133 (< (- (- (* 20 x8) (* 13 x33)) (* 20 x20)) (- 3))) (?v_221 (<= (+ (- (* (- 18) x18) ?v_130) (* 14 x26)) 18))) (let ((?v_162 (not ?v_221)) (?v_199 (not ?v_70)) (?v_153 (<= (+ (- (* (- 14) x37) (* 22 x48)) (* 15 x43)) 18))) (let ((?v_206 (not ?v_153)) (?v_214 (not ?v_10)) (?v_193 (not ?v_48)) (?v_183 (<= (+ (* 9 x3) (* 5 x28) (* 22 x10)) (- 1)))) (let ((?v_224 (not ?v_183)) (?v_252 (not ?v_110)) (?v_249 (not ?v_125)) (?v_207 (not ?v_69)) (?v_213 (<= (- (+ (* 11 x8) (* 17 x4)) (* 11 x47)) (- 18))) (?v_226 (not ?v_133))) (let ((?v_255 (not ?v_213)) (?v_234 (not ?v_34))) (and (and (and (and (and (and (and (and (and (and (and (and (and (and (and (and (and (and (and (and (and (and (and (and (and (and (and (and (and (and (and (and (and (and (and (and (and (and (and (and (and (and (and (and (and (and (and (and (and (and (and (and (and (and (and (and (and (and (and (and (and (and (and (and (and (and (and (and (and (and (and (and (and (and (and (and (and (and (and (and (and (and (and (and (and (and (and (and (and (and (and (and (and (and (and (and (and (and (and (and (and (and (and (and (and (and (and (and (and (and (and (and (and (and (and (and (and (and (and (and (and (and (and (and (and (and (and (and (and (and (and (and (and (and (and (and (and (and (and (and (and (and (and (and (and (and (and (and (and (and (and (and (and (and (and (and (and (and (and (and (and (and (and (and (and (and (and (and (and (and (and (and (and (and (and (and (and (and (and (and (and (and (and (and (and (and (and (and (and (and (and (and (and (and (and (and (and (and (and (and (and (and (and (and (and (and (and (and (and (and (and (and (and (and (and (and (and (and (and (and (and (and (and (and (and (and (and (and (and (and (and (and (and (and (and (and (and (and (and (and (and (and (and (and (and (and (and (and (and (and (and (and (and (and (and (and (and (and (and (and (and (and (and (and (and (and (and (and (and (and (and (and (and (and (and (and (and (and (and (and (and (and (and (and (and (and (and (and (and (and (and (and (and (and (and (and (and (and (and (and (and (and (and (and (and (and (and (and (and (and (and (and (and (and (and (and (and (and (and (and (and (and (and (and (and (and (and (and (and (and (and (and (and (and (and (and (and (and (and (and (and (and (and (and (and (and (and (and (and (and (and (and (and (and (and (and (and (and (and (and (and (and (and (and (and (and (and (and (and (and (and (and (and (and (and (and (and (and (and (and (and (and (and (and (and (and (and (and (and (and (and (and (and (and (and (and (and (and (and (and (and (and (and (and (and (and (and (and (and (and (and (and (and (and (and (and (and (and (and (and (and (and (and (and (and (and (and (and (and (and (and (and (and (and (and (and (and (and (and (and (and (and (and (and (and (and (and (and (and (and (and (and (and (and (and (and (and (and (and (and (and (and (and (and (and (and (and (and (and (and (and (and (and (and (and (and (and (and (and (and (and (and (and (and (and (and (and (and (and (and (and (and (and (and (and (and (and (and (and (and (and (and (and (and (and (and (and (and (and (and (and (and (and (and (and (and (and (and (and (and (and (and (and (and (and (and (and (and (and (and (and (and (and (and (and (and (and (and (and (and (and (and (and (and (and (and (and (and (and (and (and (and (and (and (and (and (and (and (and (and (and (and (and (and (and (and (and (and (and (and (and (and (and (and (and (and (and (and (and (and (and (and (and (and (and (and (and (and (and (and (and (and (and (and (and (and (and (and (and (or (or ?v_7 ?v_0) ?v_144) (or (or ?v_195 ?v_19) ?v_0)) (or (or P36 ?v_32) P33)) (or (or ?v_84 P43) ?v_22)) (or (or ?v_61 ?v_50) ?v_104)) (or (or ?v_30 ?v_189) ?v_87)) (or (or ?v_54 ?v_1) ?v_11)) (or (or P38 ?v_4) P33)) (or (or ?v_131 ?v_177) ?v_48)) (or (or ?v_36 P16) ?v_21)) (or (or ?v_45 ?v_126) ?v_51)) (or (or ?v_80 ?v_184) ?v_4)) (or (or ?v_135 ?v_70) ?v_6)) (or (or ?v_14 ?v_69) ?v_89)) (or (or ?v_15 ?v_6) ?v_10)) (or (or ?v_18 ?v_37) ?v_132)) (or (or ?v_16 ?v_123) ?v_68)) (or (or P26 ?v_108) P48)) (or (or ?v_99 ?v_57) ?v_43)) (or (or ?v_191 ?v_9) ?v_79)) (or (or ?v_229 P18) ?v_8)) (or (or P43 ?v_9) ?v_164)) (or (or ?v_12 ?v_63) ?v_115)) (or (or ?v_116 ?v_10) ?v_85)) (or (or ?v_13 ?v_33) ?v_92)) (or (or ?v_39 ?v_11) ?v_12)) (or (or P25 ?v_140) ?v_55)) (or (or ?v_41 ?v_120) P48)) (or (or ?v_26 ?v_25) P41)) (or (or ?v_15 ?v_16) ?v_134)) (or (or ?v_78 ?v_17) ?v_18)) (or (or ?v_112 ?v_181) ?v_19)) (or (or ?v_94 ?v_53) ?v_20)) (or (or ?v_21 ?v_114) ?v_138)) (or (or ?v_172 P28) ?v_110)) (or (or ?v_22 ?v_218) ?v_71)) (or (or ?v_24 ?v_75) ?v_88)) (or (or ?v_25 P34) ?v_0)) (or (or ?v_44 ?v_163) P44)) (or (or ?v_76 ?v_26) ?v_151)) (or (or ?v_67 ?v_81) ?v_11)) (or (or ?v_34 ?v_29) P37)) (or (or ?v_30 ?v_179) ?v_93)) (or (or ?v_32 P23) ?v_14)) (or (or ?v_33 ?v_35) ?v_83)) (or (or ?v_34 ?v_62) ?v_91)) (or (or ?v_35 ?v_127) P14)) (or (or ?v_36 ?v_37) ?v_34)) (or (or ?v_38 ?v_39) ?v_40)) (or (or ?v_41 ?v_42) ?v_58)) (or (or ?v_34 ?v_121) ?v_44)) (or (or (not ?v_18) ?v_236) ?v_46)) (or (or P5 ?v_225) ?v_17)) (or (or ?v_45 ?v_46) ?v_170)) (or (or ?v_47 ?v_48) ?v_7)) (or (or ?v_49 P18) ?v_254)) (or (or ?v_169 ?v_175) ?v_246)) (or (or ?v_29 ?v_52) ?v_42)) (or (or P6 ?v_244) ?v_77)) (or (or ?v_7 ?v_54) ?v_8)) (or (or ?v_186 ?v_55) ?v_223)) (or (or ?v_56 ?v_122) ?v_95)) (or (or ?v_72 ?v_96) ?v_167)) (or (or ?v_58 P31) P30)) (or (or ?v_59 ?v_60) ?v_61)) (or (or ?v_62 P33) ?v_63)) (or (or ?v_43 P21) ?v_64)) (or (or P0 ?v_65) ?v_66)) (or (or P22 ?v_67) ?v_12)) (or (or ?v_63 ?v_68) ?v_69)) (or (or ?v_20 ?v_82) ?v_208)) (or (or ?v_98 ?v_40) ?v_148)) (or (or P29 ?v_70) P47)) (or (or ?v_71 ?v_72) ?v_171)) (or (or P22 P12) ?v_233)) (or (or ?v_147 ?v_73) ?v_44)) (or (or ?v_74 ?v_75) P3)) (or (or ?v_76 ?v_77) ?v_78)) (or (or ?v_35 ?v_79) ?v_109)) (or (or ?v_80 ?v_81) ?v_82)) (or (or ?v_124 ?v_83) ?v_4)) (or (or P6 P37) ?v_84)) (or (or P3 ?v_45) ?v_85)) (or (or ?v_86 ?v_198) ?v_173)) (or (or P8 ?v_137) ?v_88)) (or (or ?v_15 ?v_89) ?v_37)) (or (or P14 ?v_90) ?v_166)) (or (or ?v_92 P19) ?v_93)) (or (or ?v_21 ?v_94) ?v_178)) (or (or ?v_76 ?v_159) P26)) (or (or ?v_84 ?v_129) ?v_150)) (or (or P11 ?v_243) P28)) (or (or ?v_111 ?v_54) ?v_97)) (or (or ?v_192 P26) ?v_98)) (or (or ?v_99 ?v_35) ?v_100)) (or (or ?v_174 ?v_100) ?v_71)) (or (or ?v_228 ?v_182) ?v_117)) (or (or ?v_146 ?v_59) ?v_103)) (or (or ?v_210 ?v_99) ?v_105)) (or (or P41 ?v_106) P22)) (or (or ?v_86 ?v_136) P19)) (or (or P18 ?v_107) P21)) (or (or ?v_108 ?v_125) ?v_47)) (or (or ?v_109 ?v_52) ?v_110)) (or (or ?v_160 ?v_247) ?v_47)) (or (or ?v_112 P43) ?v_81)) (or (or ?v_113 ?v_87) ?v_114)) (or (or P44 ?v_145) ?v_40)) (or (or ?v_88 P2) ?v_116)) (or (or ?v_117 ?v_80) ?v_64)) (or (or P38 ?v_113) P36)) (or (or ?v_48 ?v_185) ?v_216)) (or (or ?v_39 ?v_119) P45)) (or (or ?v_13 ?v_120) ?v_32)) (or (or ?v_86 ?v_41) ?v_121)) (or (or ?v_176 ?v_123) ?v_212)) (or (or P42 ?v_125) P46)) (or (or ?v_126 ?v_22) ?v_37)) (or (or ?v_12 ?v_96) ?v_58)) (or (or ?v_142 ?v_1) ?v_76)) (or (or ?v_157 ?v_26) ?v_133)) (or (or ?v_81 ?v_36) ?v_158)) (or (or ?v_128 ?v_51) ?v_52)) (or (or P21 ?v_129) ?v_162)) (or (or ?v_49 ?v_131) P13)) (or (or ?v_152 ?v_149) ?v_46)) (or (or P39 ?v_71) P20)) (or (or ?v_11 ?v_161) ?v_133)) (or (or ?v_180 ?v_16) ?v_134)) (or (or ?v_231 ?v_98) ?v_136)) (or (or ?v_256 ?v_205) ?v_109)) (or (or ?v_93 ?v_138) ?v_199)) (or (or P46 ?v_85) ?v_9)) (or (or ?v_111 ?v_122) ?v_112)) (or (or ?v_76 ?v_139) ?v_92)) (or (or ?v_70 ?v_108) ?v_87)) (or (or ?v_47 ?v_59) ?v_140)) (or (or ?v_141 ?v_34) ?v_138)) (or (or P37 ?v_12) ?v_142)) (or (or ?v_143 ?v_10) P17)) (or (or ?v_138 ?v_51) ?v_49)) (or (or ?v_135 ?v_84) ?v_144)) (or (or ?v_126 ?v_55) ?v_73)) (or (or ?v_14 ?v_70) ?v_9)) (or (or P14 P48) ?v_20)) (or (or ?v_114 ?v_145) ?v_109)) (or (or ?v_146 ?v_129) ?v_147)) (or (or ?v_148 ?v_196) ?v_80)) (or (or ?v_217 ?v_153) ?v_59)) (or (or P47 ?v_125) ?v_89)) (or (or ?v_145 ?v_238) ?v_149)) (or (or ?v_19 ?v_107) ?v_53)) (or (or ?v_0 ?v_51) ?v_150)) (or (or ?v_151 P43) ?v_122)) (or (or ?v_152 ?v_47) ?v_97)) (or (or ?v_79 ?v_98) ?v_77)) (or (or ?v_206 ?v_203) P19)) (or (or ?v_68 ?v_135) P24)) (or (or ?v_135 ?v_65) ?v_81)) (or (or ?v_214 ?v_46) ?v_73)) (or (or ?v_188 P41) P0)) (or (or ?v_165 P42) ?v_9)) (or (or ?v_154 ?v_155) ?v_16)) (or (or ?v_156 ?v_42) ?v_157)) (or (or ?v_148 ?v_158) ?v_159)) (or (or ?v_160 P15) ?v_88)) (or (or ?v_110 ?v_161) ?v_62)) (or (or P15 ?v_162) ?v_253)) (or (or P32 ?v_116) ?v_163)) (or (or ?v_106 ?v_209) ?v_164)) (or (or ?v_194 P4) ?v_100)) (or (or ?v_165 ?v_72) ?v_26)) (or (or ?v_166 ?v_147) ?v_131)) (or (or ?v_11 ?v_193) ?v_167)) (or (or ?v_160 ?v_202) ?v_86)) (or (or ?v_235 ?v_53) ?v_1)) (or (or ?v_142 P48) ?v_12)) (or (or ?v_126 ?v_82) P31)) (or (or ?v_190 P24) P18)) (or (or ?v_141 ?v_142) ?v_24)) (or (or P2 ?v_169) ?v_71)) (or (or ?v_106 ?v_170) ?v_39)) (or (or ?v_171 P17) ?v_172)) (or (or ?v_35 ?v_160) ?v_173)) (or (or ?v_174 ?v_175) ?v_62)) (or (or ?v_34 ?v_15) ?v_176)) (or (or ?v_224 ?v_170) ?v_111)) (or (or ?v_107 ?v_120) ?v_76)) (or (or P47 ?v_129) ?v_4)) (or (or ?v_153 ?v_133) ?v_79)) (or (or ?v_64 ?v_177) ?v_90)) (or (or ?v_161 ?v_56) ?v_178)) (or (or ?v_179 ?v_180) ?v_6)) (or (or P17 ?v_175) P42)) (or (or ?v_136 P17) ?v_128)) (or (or ?v_187 P20) ?v_169)) (or (or P7 ?v_123) ?v_181)) (or (or ?v_7 ?v_170) ?v_71)) (or (or ?v_178 ?v_120) ?v_84)) (or (or P13 ?v_141) ?v_248)) (or (or ?v_131 ?v_46) ?v_175)) (or (or ?v_181 P6) P10)) (or (or ?v_52 ?v_182) ?v_36)) (or (or ?v_108 ?v_250) ?v_99)) (or (or ?v_183 ?v_173) ?v_227)) (or (or ?v_46 ?v_54) ?v_123)) (or (or ?v_20 P19) P6)) (or (or ?v_153 ?v_164) P14)) (or (or ?v_184 ?v_85) ?v_32)) (or (or ?v_24 ?v_185) P3)) (or (or P45 ?v_1) ?v_90)) (or (or ?v_67 P26) ?v_186)) (or (or ?v_134 ?v_167) ?v_143)) (or (or ?v_187 P16) ?v_119)) (or (or ?v_144 ?v_61) ?v_137)) (or (or ?v_188 ?v_78) ?v_189)) (or (or ?v_175 ?v_186) ?v_90)) (or (or ?v_66 ?v_16) ?v_49)) (or (or ?v_190 ?v_9) ?v_52)) (or (or ?v_123 ?v_176) ?v_77)) (or (or ?v_161 ?v_191) ?v_136)) (or (or P31 ?v_192) ?v_193)) (or (or ?v_194 ?v_91) ?v_84)) (or (or ?v_195 ?v_57) P18)) (or (or P35 P25) P26)) (or (or ?v_220 ?v_111) ?v_190)) (or (or ?v_129 P41) ?v_126)) (or (or ?v_78 ?v_25) ?v_111)) (or (or ?v_170 ?v_135) P44)) (or (or ?v_125 P4) P3)) (or (or ?v_196 P16) ?v_131)) (or (or ?v_156 ?v_165) ?v_43)) (or (or ?v_77 ?v_125) ?v_197)) (or (or ?v_158 ?v_86) ?v_36)) (or (or ?v_117 ?v_0) ?v_90)) (or (or ?v_29 ?v_198) ?v_136)) (or (or ?v_169 ?v_159) ?v_117)) (or (or ?v_93 ?v_48) ?v_40)) (or (or ?v_191 ?v_32) ?v_252)) (or (or P23 P38) ?v_199)) (or (or P40 ?v_98) ?v_57)) (or (or ?v_21 ?v_249) ?v_237)) (or (or ?v_232 ?v_35) ?v_204)) (or (or ?v_47 ?v_154) ?v_207)) (or (or ?v_32 P48) ?v_24)) (or (or P39 P47) ?v_175)) (or (or ?v_150 ?v_40) ?v_33)) (or (or ?v_143 ?v_114) ?v_51)) (or (or ?v_94 P7) ?v_4)) (or (or ?v_200 ?v_24) P5)) (or (or ?v_174 ?v_201) ?v_141)) (or (or ?v_155 P32) ?v_202)) (or (or P3 ?v_153) P48)) (or (or ?v_0 P29) ?v_203)) (or (or ?v_204 ?v_58) ?v_4)) (or (or ?v_205 ?v_86) ?v_12)) (or (or ?v_33 ?v_176) ?v_206)) (or (or ?v_207 P32) ?v_43)) (or (or ?v_213 P13) ?v_208)) (or (or P17 ?v_209) ?v_143)) (or (or ?v_88 ?v_210) ?v_97)) (or (or ?v_211 ?v_20) P4)) (or (or ?v_178 ?v_212) P43)) (or (or ?v_159 P25) ?v_9)) (or (or ?v_213 (not ?v_98)) P1)) (or (or ?v_18 ?v_199) ?v_214)) (or (or ?v_77 ?v_215) ?v_179)) (or (or ?v_197 ?v_11) ?v_191)) (or (or P0 ?v_184) ?v_216)) (or (or ?v_217 ?v_143) ?v_186)) (or (or ?v_179 P34) P0)) (or (or ?v_173 ?v_74) ?v_111)) (or (or ?v_62 ?v_186) ?v_140)) (or (or ?v_58 P16) ?v_54)) (or (or P36 ?v_121) ?v_218)) (or (or P29 ?v_63) ?v_160)) (or (or ?v_94 ?v_212) ?v_219)) (or (or ?v_29 ?v_179) ?v_26)) (or (or ?v_145 ?v_176) ?v_204)) (or (or ?v_45 ?v_155) ?v_1)) (or (or ?v_122 ?v_222) ?v_107)) (or (or ?v_185 P1) ?v_15)) (or (or ?v_112 ?v_123) ?v_220)) (or (or ?v_80 ?v_29) P27)) (or (or ?v_221 ?v_108) ?v_160)) (or (or ?v_20 ?v_1) P3)) (or (or ?v_20 ?v_14) ?v_212)) (or (or ?v_195 ?v_15) ?v_171)) (or (or P16 ?v_151) ?v_133)) (or (or P36 P34) ?v_152)) (or (or ?v_48 ?v_179) ?v_135)) (or (or ?v_222 ?v_9) ?v_84)) (or (or P4 ?v_11) ?v_1)) (or (or P41 ?v_198) ?v_127)) (or (or ?v_170 ?v_132) ?v_68)) (or (or P31 P34) P23)) (or (or P7 ?v_68) P6)) (or (or ?v_200 ?v_93) ?v_180)) (or (or ?v_88 ?v_200) ?v_223)) (or (or ?v_37 P20) ?v_38)) (or (or ?v_180 ?v_120) ?v_75)) (or (or P44 ?v_39) ?v_186)) (or (or P0 P11) ?v_76)) (or (or ?v_167 ?v_205) ?v_224)) (or (or P15 ?v_55) ?v_188)) (or (or ?v_226 ?v_140) ?v_208)) (or (or ?v_43 ?v_115) ?v_203)) (or (or ?v_75 ?v_16) ?v_257)) (or (or ?v_139 ?v_71) P17)) (or (or ?v_226 ?v_218) ?v_9)) (or (or P15 ?v_221) ?v_144)) (or (or ?v_212 ?v_24) ?v_145)) (or (or ?v_242 P25) ?v_90)) (or (or ?v_145 ?v_52) ?v_19)) (or (or ?v_255 ?v_78) ?v_33)) (or (or P2 ?v_185) ?v_125)) (or (or ?v_213 ?v_112) ?v_178)) (or (or ?v_156 ?v_227) P23)) (or (or ?v_210 ?v_40) ?v_228)) (or (or P32 ?v_86) ?v_117)) (or (or ?v_48 ?v_229) ?v_163)) (or (or ?v_230 ?v_181) ?v_46)) (or (or P6 ?v_62) ?v_148)) (or (or ?v_111 P16) ?v_19)) (or (or ?v_199 ?v_114) ?v_190)) (or (or ?v_72 P20) ?v_138)) (or (or ?v_4 ?v_121) ?v_39)) (or (or ?v_37 P31) ?v_50)) (or (or ?v_183 ?v_77) ?v_135)) (or (or ?v_116 ?v_59) ?v_0)) (or (or ?v_240 ?v_86) ?v_194)) (or (or ?v_25 ?v_199) P31)) (or (or P34 ?v_164) ?v_206)) (or (or ?v_46 P7) ?v_66)) (or (or ?v_188 ?v_231) P4)) (or (or ?v_62 ?v_12) ?v_119)) (or (or ?v_134 ?v_143) ?v_1)) (or (or ?v_177 P9) ?v_20)) (or (or ?v_12 ?v_137) ?v_232)) (or (or ?v_75 ?v_233) P36)) (or (or P44 ?v_11) ?v_162)) (or (or ?v_16 ?v_140) P41)) (or (or ?v_11 ?v_134) ?v_202)) (or (or ?v_16 ?v_106) ?v_74)) (or (or P3 ?v_19) ?v_110)) (or (or ?v_147 P38) ?v_32)) (or (or ?v_94 ?v_29) ?v_234)) (or (or ?v_53 ?v_176) ?v_68)) (or (or P27 ?v_221) ?v_191)) (or (or ?v_234 P20) ?v_205)) (or (or ?v_9 ?v_12) P42)) (or (or ?v_212 P9) ?v_235)) (or (or ?v_147 ?v_38) ?v_114)) (or (or P19 ?v_236) ?v_237)) (or (or ?v_75 ?v_167) ?v_113)) (or (or ?v_202 ?v_44) P44)) (or (or ?v_186 P26) ?v_24)) (or (or ?v_183 ?v_124) P18)) (or (or ?v_104 ?v_18) ?v_58)) (or (or P0 P22) ?v_115)) (or (or ?v_25 ?v_143) ?v_201)) (or (or ?v_176 ?v_180) ?v_202)) (or (or ?v_165 ?v_158) ?v_80)) (or (or P49 ?v_151) ?v_169)) (or (or ?v_158 ?v_157) ?v_222)) (or (or ?v_207 ?v_62) ?v_238)) (or (or ?v_222 ?v_210) ?v_21)) (or (or ?v_35 P32) ?v_152)) (or (or ?v_53 P32) ?v_40)) (or (or ?v_239 ?v_208) ?v_136)) (or (or ?v_229 ?v_36) ?v_77)) (or (or ?v_75 ?v_221) P45)) (or (or P46 ?v_6) ?v_49)) (or (or ?v_239 ?v_106) ?v_142)) (or (or P40 ?v_202) ?v_204)) (or (or ?v_108 ?v_24) ?v_234)) (or (or ?v_116 P8) ?v_218)) (or (or ?v_61 ?v_224) ?v_45)) (or (or ?v_213 ?v_82) P12)) (or (or ?v_230 ?v_49) ?v_180)) (or (or ?v_41 ?v_71) ?v_83)) (or (or ?v_13 ?v_11) ?v_192)) (or (or ?v_85 ?v_150) ?v_139)) (or (or P26 ?v_198) ?v_15)) (or (or P44 ?v_216) ?v_218)) (or (or ?v_178 ?v_89) ?v_201)) (or (or P28 ?v_180) ?v_129)) (or (or ?v_235 ?v_217) ?v_29)) (or (or ?v_240 ?v_251) ?v_49)) (or (or P7 ?v_65) ?v_170)) (or (or ?v_241 ?v_180) ?v_48)) (or (or ?v_156 ?v_161) ?v_71)) (or (or ?v_132 ?v_137) ?v_188)) (or (or ?v_96 ?v_116) ?v_51)) (or (or ?v_131 ?v_245) ?v_19)) (or (or ?v_1 ?v_19) ?v_180)) (or (or ?v_140 ?v_183) ?v_21)) (or (or ?v_156 ?v_0) ?v_104)) (or (or P18 ?v_167) P12)) (or (or ?v_242 ?v_243) ?v_213)) (or (or ?v_56 ?v_128) ?v_204)) (or (or ?v_77 ?v_154) ?v_194)) (or (or ?v_238 ?v_17) ?v_244)) (or (or ?v_245 ?v_88) ?v_83)) (or (or ?v_243 ?v_37) ?v_81)) (or (or ?v_19 ?v_21) ?v_29)) (or (or ?v_186 ?v_224) P2)) (or (or ?v_154 ?v_134) ?v_163)) (or (or ?v_233 P12) ?v_155)) (or (or ?v_53 ?v_74) ?v_125)) (or (or ?v_30 P17) ?v_127)) (or (or ?v_29 ?v_114) P21)) (or (or ?v_246 ?v_160) ?v_78)) (or (or ?v_117 ?v_158) ?v_50)) (or (or ?v_222 ?v_8) ?v_61)) (or (or ?v_13 ?v_12) ?v_223)) (or (or ?v_63 ?v_150) ?v_129)) (or (or P11 ?v_221) ?v_92)) (or (or ?v_8 ?v_12) ?v_70)) (or (or P44 ?v_247) P17)) (or (or ?v_109 ?v_228) P39)) (or (or ?v_61 ?v_104) P18)) (or (or P7 ?v_88) P28)) (or (or P31 ?v_85) ?v_111)) (or (or P28 ?v_244) ?v_144)) (or (or ?v_226 ?v_162) ?v_7)) (or (or P39 ?v_56) ?v_200)) (or (or ?v_95 ?v_206) ?v_77)) (or (or ?v_209 ?v_224) P35)) (or (or ?v_66 ?v_12) ?v_205)) (or (or ?v_36 ?v_157) ?v_215)) (or (or ?v_42 ?v_235) ?v_73)) (or (or ?v_84 ?v_248) ?v_249)) (or (or ?v_35 P40) ?v_18)) (or (or ?v_14 ?v_217) P13)) (or (or ?v_48 ?v_13) ?v_238)) (or (or P22 ?v_239) ?v_142)) (or (or ?v_22 ?v_90) P45)) (or (or P0 P25) ?v_231)) (or (or ?v_184 ?v_250) ?v_93)) (or (or ?v_158 ?v_48) ?v_210)) (or (or ?v_224 ?v_134) ?v_74)) (or (or ?v_37 ?v_244) ?v_49)) (or (or ?v_129 ?v_245) ?v_91)) (or (or ?v_34 ?v_81) ?v_156)) (or (or ?v_183 ?v_125) ?v_62)) (or (or ?v_107 ?v_159) ?v_89)) (or (or ?v_70 P25) ?v_231)) (or (or P21 ?v_121) ?v_251)) (or (or ?v_166 ?v_223) ?v_174)) (or (or ?v_175 ?v_206) ?v_141)) (or (or ?v_88 ?v_42) ?v_72)) (or (or P15 P10) ?v_73)) (or (or ?v_48 ?v_252) ?v_191)) (or (or P17 ?v_14) ?v_77)) (or (or ?v_75 ?v_131) ?v_35)) (or (or ?v_7 ?v_138) ?v_183)) (or (or ?v_201 ?v_229) ?v_90)) (or (or ?v_238 ?v_30) ?v_55)) (or (or P15 ?v_219) P35)) (or (or ?v_100 ?v_174) ?v_249)) (or (or ?v_26 ?v_93) ?v_74)) (or (or ?v_15 ?v_175) ?v_43)) (or (or ?v_199 ?v_37) ?v_15)) (or (or ?v_245 ?v_14) P15)) (or (or ?v_129 P24) ?v_48)) (or (or P10 ?v_34) P28)) (or (or P47 ?v_15) ?v_146)) (or (or ?v_197 ?v_207) ?v_172)) (or (or ?v_221 P49) ?v_234)) (or (or ?v_224 ?v_71) ?v_239)) (or (or ?v_49 ?v_173) ?v_87)) (or (or ?v_184 ?v_20) ?v_148)) (or (or ?v_229 ?v_185) ?v_135)) (or (or ?v_105 ?v_234) ?v_8)) (or (or (not ?v_82) ?v_122) ?v_55)) (or (or P27 ?v_52) P12)) (or (or ?v_41 ?v_139) P36)) (or (or ?v_29 ?v_177) P37)) (or (or ?v_84 ?v_109) ?v_41)) (or (or ?v_208 ?v_50) ?v_176)) (or (or ?v_104 ?v_104) ?v_173)) (or (or ?v_253 ?v_149) ?v_212)) (or (or ?v_184 P9) ?v_163)) (or (or ?v_15 ?v_249) ?v_196)) (or (or ?v_56 ?v_19) ?v_176)) (or (or ?v_158 P9) P43)) (or (or P21 ?v_155) ?v_112)) (or (or ?v_58 (not ?v_179)) P38)) (or (or ?v_185 ?v_19) ?v_217)) (or (or P4 ?v_75) ?v_133)) (or (or ?v_49 ?v_201) ?v_105)) (or (or ?v_50 ?v_204) ?v_163)) (or (or ?v_12 ?v_197) ?v_34)) (or (or P39 ?v_58) ?v_10)) (or (or ?v_125 ?v_116) ?v_188)) (or (or ?v_52 ?v_248) P7)) (or (or P38 ?v_65) ?v_254)) (or (or ?v_225 ?v_194) ?v_200)) (or (or ?v_38 ?v_24) ?v_26)) (or (or ?v_191 ?v_200) ?v_50)) (or (or P1 ?v_106) ?v_39)) (or (or ?v_237 ?v_214) P30)) (or (or ?v_226 ?v_182) ?v_224)) (or (or ?v_64 P24) ?v_17)) (or (or ?v_255 P2) P6)) (or (or ?v_10 P46) ?v_126)) (or (or ?v_173 ?v_117) ?v_52)) (or (or ?v_224 ?v_213) ?v_182)) (or (or ?v_208 ?v_252) ?v_109)) (or (or ?v_44 P13) ?v_105)) (or (or ?v_152 P45) ?v_187)) (or (or ?v_250 P22) ?v_120)) (or (or P17 P41) P19)) (or (or ?v_226 ?v_98) ?v_250)) (or (or ?v_53 ?v_6) ?v_109)) (or (or ?v_147 P33) ?v_241)) (or (or ?v_39 ?v_194) ?v_170)) (or (or P39 ?v_256) ?v_40)) (or (or ?v_223 ?v_185) ?v_134)) (or (or ?v_183 P3) ?v_144)) (or (or ?v_32 P45) ?v_164)) (or (or ?v_79 ?v_40) P45)) (or (or P7 ?v_124) ?v_84)) (or (or P14 ?v_122) ?v_199)) (or (or ?v_54 ?v_176) ?v_96)) (or (or ?v_75 ?v_156) ?v_20)) (or (or ?v_146 P36) ?v_148)) (or (or ?v_66 ?v_143) ?v_121)) (or (or P36 P42) ?v_188)) (or (or ?v_65 ?v_45) P31)) (or (or P14 ?v_209) ?v_108)) (or (or ?v_69 ?v_22) ?v_177)) (or (or ?v_139 ?v_14) ?v_216)) (or (or ?v_156 ?v_210) ?v_153)) (or (or ?v_105 ?v_200) ?v_107)) (or (or ?v_11 ?v_177) ?v_80)) (or (or ?v_93 ?v_112) P43)) (or (or ?v_246 ?v_243) ?v_88)) (or (or ?v_78 ?v_125) ?v_245)) (or (or ?v_94 ?v_92) ?v_225)) (or (or P5 ?v_214) ?v_248)) (or (or ?v_160 ?v_127) ?v_47)) (or (or ?v_29 ?v_186) ?v_181)) (or (or ?v_170 ?v_171) ?v_257)) (or (or ?v_50 ?v_25) ?v_34)) (or (or ?v_42 ?v_244) ?v_216)) (or (or ?v_210 ?v_137) ?v_108)) (or (or ?v_138 ?v_119) ?v_199)) (or (or P34 ?v_63) ?v_245)) (or (or ?v_197 ?v_83) P47)) (or (or ?v_110 ?v_231) ?v_240)) (or (or ?v_147 ?v_1) ?v_170)) (or (or ?v_249 ?v_196) ?v_138)) (or (or ?v_70 ?v_243) ?v_150)) (or (or ?v_36 ?v_19) ?v_153)) (or (or ?v_16 ?v_253) ?v_156)) (or (or ?v_189 P1) ?v_234)) (or (or ?v_142 ?v_103) ?v_188)) (or (or ?v_17 ?v_186) ?v_56)) (or (or ?v_158 ?v_35) ?v_180)) (or (or ?v_166 ?v_56) P46)) (or (or P19 ?v_161) P1)) (or (or ?v_123 ?v_201) P24)) (or (or ?v_20 ?v_150) ?v_175)) (or (or ?v_249 ?v_144) ?v_230)) (or (or ?v_68 ?v_243) ?v_41)) (or (or ?v_4 ?v_203) ?v_37)) (or (or P8 ?v_214) ?v_222)) (or (or ?v_210 ?v_107) ?v_159)) (or (or ?v_148 ?v_189) P20)) (or (or ?v_214 ?v_167) ?v_210)) (or (or ?v_109 P32) ?v_179)) (or (or ?v_65 P20) ?v_48)) (or (or ?v_29 ?v_54) ?v_184)) (or (or ?v_131 ?v_204) ?v_85)) (or (or P8 ?v_77) ?v_73)) (or (or ?v_249 ?v_231) ?v_200)) (or (or ?v_214 ?v_0) P12)) (or (or ?v_59 ?v_240) ?v_142)) (or (or ?v_25 ?v_171) ?v_192)) (or (or ?v_122 ?v_214) ?v_91)) (or (or ?v_217 P34) ?v_200)) (or (or ?v_167 P49) ?v_219)) (or (or P32 ?v_135) ?v_225)) (or (or ?v_136 ?v_194) ?v_254)) (or (or ?v_248 P21) ?v_183)) (or (or ?v_213 ?v_30) ?v_44)) (or (or ?v_88 ?v_162) ?v_193)) (or (or ?v_37 ?v_127) ?v_80)) (or (or ?v_190 ?v_136) P8)) (or (or ?v_122 ?v_174) ?v_229)) (or (or ?v_58 ?v_207) P40)) (or (or ?v_51 ?v_247) ?v_200)) (or (or ?v_141 ?v_9) P42)) (or (or ?v_230 ?v_117) ?v_156)) (or (or ?v_48 ?v_82) ?v_231)) (or (or ?v_21 ?v_212) ?v_221)) (or (or P2 ?v_225) ?v_188)) (or (or ?v_204 P39) ?v_165))))))))))))))))))))))))))))))
(check-sat)
(exit)
